10 45 5
0 1 1.00
0 2 3.00
0 3 30.00
0 4 3.00
0 5 30.00
0 6 3.00
0 7 30.00
0 8 3.00
0 9 1.00
1 2 1.00
1 3 30.00
1 4 30.00
1 5 30.00
1 6 30.00
1 7 30.00
1 8 30.00
1 9 30.00
2 3 1.00
2 4 3.00
2 5 30.00
2 6 3.00
2 7 30.00
2 8 3.00
2 9 30.00
3 4 1.00
3 5 30.00
3 6 30.00
3 7 30.00
3 8 30.00
3 9 30.00
4 5 1.00
4 6 3.00
4 7 30.00
4 8 3.00
4 9 30.00
5 6 1.00
5 7 30.00
5 8 30.00
5 9 30.00
6 7 1.00
6 8 3.00
6 9 30.00
7 8 1.00
7 9 30.00
8 9 1.00
0
2
4
6
8
